Geographic Exponential Decay
20 111 114 233 28 311 267 289 93 166 260 108 71 272 209 234 129 165 304 24 62
p edge 320 319
e 0 42 1.0
e 1 150 2.0
e 1 0 1.0
e 2 225 2.0
e 2 1 1.0
e 3 314 6.0
e 3 2 1.0
e 4 282 1.0
e 4 3 1.0
e 5 233 42.0
e 5 4 4.0
e 6 159 2.0
e 6 5 1.0
e 7 166 32.0
e 7 6 1.0
e 8 205 1.0
e 8 7 2.0
e 9 151 1.0
e 9 8 1.0
e 10 207 1.0
e 10 9 1.0
e 11 12 1.0
e 11 10 2.0
e 13 250 5.0
e 13 11 12.0
e 14 98 5.0
e 14 13 10.0
e 15 315 2.0
e 15 14 7.0
e 16 210 5.0
e 16 15 2.0
e 17 132 2.0
e 17 16 2.0
e 18 168 5.0
e 18 17 7.0
e 19 38 5.0
e 19 18 3.0
e 20 110 2.0
e 20 19 2.0
e 21 234 92.0
e 22 278 5.0
e 22 20 3.0
e 23 91 1.0
e 23 22 2.0
e 24 79 87.0
e 24 317 21.0
e 24 165 72.0
e 24 89 42.0
e 24 126 86.0
e 25 123 1.0
e 25 23 1.0
e 26 93 4.0
e 26 25 3.0
e 27 95 1.0
e 27 26 4.0
e 28 290 47.0
e 28 223 29.0
e 28 162 53.0
e 28 258 83.0
e 28 251 73.0
e 28 27 47.0
e 29 124 29.0
e 29 298 8.0
e 29 228 6.0
e 29 28 34.0
e 30 187 2.0
e 30 29 26.0
e 31 133 2.0
e 31 30 1.0
e 32 177 10.0
e 33 169 2.0
e 33 31 3.0
e 34 35 5.0
e 34 33 4.0
e 36 155 1.0
e 36 34 1.0
e 37 213 1.0
e 37 36 10.0
e 39 295 3.0
e 39 37 5.0
e 40 41 3.0
e 40 39 2.0
e 43 77 1.0
e 43 40 3.0
e 44 69 1.0
e 44 43 1.0
e 45 46 1.0
e 45 44 2.0
e 47 48 1.0
e 47 45 2.0
e 49 101 1.0
e 49 47 4.0
e 50 180 2.0
e 50 49 2.0
e 51 72 1.0
e 51 50 1.0
e 52 92 1.0
e 52 51 1.0
e 53 127 2.0
e 53 52 2.0
e 54 185 3.0
e 54 53 1.0
e 55 285 3.0
e 55 54 10.0
e 56 57 2.0
e 56 55 11.0
e 58 262 2.0
e 58 56 10.0
e 59 170 5.0
e 59 58 10.0
e 60 247 1.0
e 60 59 6.0
e 61 62 13.0
e 61 60 1.0
e 62 63 95.0
e 62 296 68.0
e 62 64 45.0
e 62 271 75.0
e 65 240 5.0
e 65 61 4.0
e 66 308 2.0
e 66 65 3.0
e 67 188 5.0
e 67 66 5.0
e 68 94 2.0
e 68 67 1.0
e 70 284 1.0
e 70 68 8.0
e 71 221 48.0
e 71 202 59.0
e 71 260 42.0
e 71 167 64.0
e 71 128 93.0
e 71 70 9.0
e 73 230 3.0
e 73 71 92.0
e 74 297 19.0
e 74 155 8.0
e 75 99 5.0
e 75 73 1.0
e 76 78 12.0
e 76 117 7.0
e 76 75 17.0
e 80 81 1.0
e 80 76 3.0
e 82 103 4.0
e 82 80 1.0
e 83 279 1.0
e 83 82 1.0
e 84 85 3.0
e 84 83 3.0
e 86 87 2.0
e 86 84 1.0
e 88 125 3.0
e 88 86 1.0
e 90 154 3.0
e 90 88 2.0
e 93 181 9.0
e 93 286 9.0
e 93 214 37.0
e 93 277 71.0
e 96 176 9.0
e 96 90 8.0
e 97 299 9.0
e 97 96 10.0
e 100 102 21.0
e 100 97 7.0
e 102 318 24.0
e 104 105 1.0
e 104 100 5.0
e 106 107 6.0
e 106 104 11.0
e 108 260 77.0
e 108 109 94.0
e 108 300 36.0
e 108 130 71.0
e 108 259 62.0
e 111 249 24.0
e 111 112 48.0
e 111 280 91.0
e 111 113 8.0
e 111 229 94.0
e 111 106 7.0
e 114 194 28.0
e 114 307 24.0
e 114 115 23.0
e 114 263 90.0
e 114 120 40.0
e 114 111 72.0
e 115 288 24.0
e 116 118 1.0
e 116 114 70.0
e 119 311 78.0
e 121 122 4.0
e 121 116 2.0
e 129 172 50.0
e 129 131 92.0
e 129 134 77.0
e 129 206 34.0
e 129 158 29.0
e 129 121 39.0
e 135 197 1.0
e 135 129 58.0
e 136 289 37.0
e 137 138 1.0
e 137 135 1.0
e 139 148 3.0
e 139 137 9.0
e 140 252 5.0
e 140 139 4.0
e 141 142 2.0
e 141 140 10.0
e 143 276 1.0
e 143 141 2.0
e 144 239 18.0
e 145 189 2.0
e 145 143 3.0
e 146 301 11.0
e 146 147 3.0
e 146 145 15.0
e 149 319 1.0
e 149 146 19.0
e 152 287 4.0
e 152 149 1.0
e 153 156 1.0
e 153 152 5.0
e 157 227 11.0
e 157 153 1.0
e 160 161 2.0
e 160 157 4.0
e 163 164 10.0
e 163 160 1.0
e 165 195 63.0
e 165 166 37.0
e 165 171 37.0
e 165 291 5.0
e 166 173 49.0
e 166 174 58.0
e 166 175 34.0
e 173 231 2.0
e 173 177 24.0
e 178 179 9.0
e 178 163 12.0
e 182 203 9.0
e 182 178 1.0
e 183 184 1.0
e 183 182 4.0
e 186 190 1.0
e 186 183 6.0
e 191 313 19.0
e 192 193 1.0
e 192 186 1.0
e 196 198 5.0
e 196 192 1.0
e 199 200 2.0
e 199 196 3.0
e 201 204 4.0
e 201 199 2.0
e 208 289 1.0
e 209 222 2.0
e 209 211 45.0
e 209 281 93.0
e 209 217 34.0
e 209 212 77.0
e 209 201 69.0
e 215 289 27.0
e 216 302 7.0
e 216 209 18.0
e 218 239 16.0
e 219 220 11.0
e 219 216 2.0
e 224 226 4.0
e 224 219 5.0
e 232 268 1.0
e 232 224 1.0
e 233 234 87.0
e 233 235 40.0
e 233 236 32.0
e 233 237 43.0
e 234 238 22.0
e 234 239 17.0
e 234 241 68.0
e 242 243 6.0
e 242 232 2.0
e 244 264 1.0
e 244 242 1.0
e 245 292 1.0
e 245 244 1.0
e 246 248 7.0
e 246 253 16.0
e 246 245 20.0
e 254 303 6.0
e 254 246 12.0
e 255 256 2.0
e 255 254 5.0
e 257 260 40.0
e 260 261 95.0
e 260 265 52.0
e 266 267 31.0
e 267 269 82.0
e 267 270 97.0
e 267 271 83.0
e 267 272 20.0
e 272 273 75.0
e 272 274 46.0
e 272 275 1.0
e 272 283 23.0
e 283 289 9.0
e 289 293 92.0
e 294 304 57.0
e 294 255 2.0
e 304 305 14.0
e 304 306 89.0
e 304 309 26.0
e 304 310 8.0
e 311 312 35.0
e 311 313 15.0
e 311 315 27.0
e 311 316 58.0
